% File represents an instance of a Composite Structure problem to be solved by a CP framework
% Created on 2025-03-26 10:41:30.611
T = 50;
n = 25;
m = 40;
edges = [(2, 1),
(6, 7),
(11, 12),
(16, 17),
(21, 22),
(3, 2),
(8, 7),
(12, 13),
(17, 18),
(22, 23),
(3, 4),
(9, 8),
(14, 13),
(19, 18),
(24, 23),
(5, 4),
(10, 9),
(15, 14),
(19, 20),
(24, 25),
(6, 1),
(11, 6),
(16, 11),
(21, 16),
(2, 7),
(12, 7),
(17, 12),
(22, 17),
(3, 8),
(8, 13),
(18, 13),
(23, 18),
(9, 4),
(9, 14),
(19, 14),
(24, 19),
(5, 10),
(10, 15),
(20, 15),
(25, 20)];
counts = [|4, 14, 4, 8,
|4, 16, 4, 8,
|4, 16, 4, 14,
|4, 16, 4, 12,
|4, 16, 4, 18,
|4, 16, 4, 8,
|4, 12, 4, 8,
|4, 12, 4, 12,
|4, 16, 4, 14,
|4, 16, 4, 16,
|4, 16, 4, 14,
|4, 16, 4, 10,
|4, 12, 4, 10,
|4, 16, 4, 10,
|4, 16, 4, 12,
|4, 18, 4, 18,
|4, 18, 4, 14,
|4, 12, 4, 14,
|4, 18, 4, 14,
|4, 16, 4, 14,
|4, 20, 4, 22,
|4, 18, 4, 20,
|4, 12, 4, 20,
|4, 18, 4, 20,
|4, 16, 4, 20|];
